Minimize
  obj: x0 + x1 + x2 + x3 + x4 + x5 + x6 + x7 + x8 + x9

Subject To
  c0: x0 + x1 + x5 + x6 + x9 = 49
  c1: x0 + x2 + x4 + x5 + x6 + x8 = 66
  c2: x0 + x2 + x4 + x5 + x8 + x9 = 51
  c3: x3 + x4 + x5 + x6 + x7 + x9 = 64
  c4: x5 + x7 = 11
  c5: x2 + x3 + x4 + x6 + x9 = 70
  c6: x0 + x1 + x6 + x7 + x9 = 44
  c7: x3 + x4 + x6 + x9 = 53

Bounds
  x0 >= 0
  x1 >= 0
  x2 >= 0
  x3 >= 0
  x4 >= 0
  x5 >= 0
  x6 >= 0
  x7 >= 0
  x8 >= 0
  x9 >= 0

Generals
  x0 x1 x2 x3 x4 x5 x6 x7 x8 x9

End
